p cnf 88 221
a 1 2 3 4 5 6 7 8 9 10 11 12 13 14 15 16 0
e 17 18 19 20 21 22 23 24 25 26 27 28 29 30 31 32 33 34 35 36 37 38 39 40 41 42 43 44 45 46 47 48 49 50 51 52 53 54 55 56 57 58 59 60 61 62 63 64 65 66 67 68 69 70 71 72 73 74 75 76 77 78 79 80 81 82 83 84 85 86 87 0
-1 -25 0
-2 -25 0
-3 -25 0
1 2 3 25 0
-4 -26 0
-5 -26 0
-6 -26 0
4 5 6 26 0
25 -27 0
26 -27 0
-7 -27 0
-8 -27 0
7 8 27 -25 -26 0
-7 -8 -28 0
7 8 -28 0
8 28 -7 0
7 28 -8 0
29 -1 0
1 -29 0
-2 -29 -30 0
2 29 -30 0
29 30 -2 0
2 30 -29 0
2 -31 0
29 -31 0
31 -2 -29 0
32 -31 0
31 -32 0
-3 -32 -33 0
3 32 -33 0
32 33 -3 0
3 33 -32 0
3 -34 0
32 -34 0
34 -3 -32 0
35 -34 0
34 -35 0
-28 -36 0
-1 -36 0
28 1 36 0
28 -37 0
1 -37 0
37 -28 -1 0
38 -36 0
38 -37 0
36 37 -38 0
-28 -39 0
30 -39 0
28 39 -30 0
28 -40 0
2 -40 0
40 -28 -2 0
41 -39 0
41 -40 0
39 40 -41 0
-28 -42 0
33 -42 0
28 42 -33 0
28 -43 0
3 -43 0
43 -28 -3 0
44 -42 0
44 -43 0
42 43 -44 0
-9 -38 -45 0
9 38 -45 0
38 45 -9 0
9 45 -38 0
-10 -41 -46 0
10 41 -46 0
41 46 -10 0
10 46 -41 0
-11 -44 -47 0
11 44 -47 0
44 47 -11 0
11 47 -44 0
-45 -48 0
-46 -48 0
-47 -48 0
45 46 47 48 0
49 -4 0
4 -49 0
-5 -49 -50 0
5 49 -50 0
49 50 -5 0
5 50 -49 0
5 -51 0
49 -51 0
51 -5 -49 0
52 -51 0
51 -52 0
-6 -52 -53 0
6 52 -53 0
52 53 -6 0
6 53 -52 0
6 -54 0
52 -54 0
54 -6 -52 0
55 -54 0
54 -55 0
-28 -56 0
4 -56 0
28 56 -4 0
28 -57 0
-4 -57 0
4 57 -28 0
58 -56 0
58 -57 0
56 57 -58 0
-28 -59 0
5 -59 0
28 59 -5 0
28 -60 0
50 -60 0
60 -28 -50 0
61 -59 0
61 -60 0
59 60 -61 0
-28 -62 0
6 -62 0
28 62 -6 0
28 -63 0
53 -63 0
63 -28 -53 0
64 -62 0
64 -63 0
62 63 -64 0
-12 -58 -65 0
12 58 -65 0
58 65 -12 0
12 65 -58 0
-13 -61 -66 0
13 61 -66 0
61 66 -13 0
13 66 -61 0
-14 -64 -67 0
14 64 -67 0
64 67 -14 0
14 67 -64 0
-65 -68 0
-66 -68 0
-67 -68 0
65 66 67 68 0
8 -15 -69 0
15 -8 -69 0
69 -15 -8 0
15 8 69 0
-16 -7 -70 0
16 7 -70 0
7 70 -16 0
16 70 -7 0
48 -71 0
68 -71 0
-69 -71 0
-70 -71 0
69 70 71 -48 -68 0
27 -72 0
71 -72 0
72 -27 -71 0
-17 -73 0
-18 -73 0
-19 -73 0
17 18 19 73 0
-20 -74 0
-21 -74 0
-22 -74 0
20 21 22 74 0
73 -75 0
74 -75 0
-23 -75 0
-24 -75 0
23 24 75 -73 -74 0
-9 -17 -76 0
9 17 -76 0
17 76 -9 0
9 76 -17 0
-10 -18 -77 0
10 18 -77 0
18 77 -10 0
10 77 -18 0
-11 -19 -78 0
11 19 -78 0
19 78 -11 0
11 78 -19 0
-76 -79 0
-77 -79 0
-78 -79 0
76 77 78 79 0
-12 -20 -80 0
12 20 -80 0
20 80 -12 0
12 80 -20 0
-13 -21 -81 0
13 21 -81 0
21 81 -13 0
13 81 -21 0
-14 -22 -82 0
14 22 -82 0
22 82 -14 0
14 82 -22 0
-80 -83 0
-81 -83 0
-82 -83 0
80 81 82 83 0
-15 -23 -84 0
15 23 -84 0
23 84 -15 0
15 84 -23 0
-16 -24 -85 0
16 24 -85 0
24 85 -16 0
16 85 -24 0
79 -86 0
83 -86 0
-84 -86 0
-85 -86 0
84 85 86 -79 -83 0
75 -87 0
86 -87 0
87 -75 -86 0
87 -72 0
